certificates/rado_a7_c243_N35.cnf
c Rad2 upper bound instance: x1 + 7*x2 - x3 = 243, interval [1,35]
p cnf 35 226
1 3 35 0
-1 -3 -35 0
2 4 35 0
-2 -4 -35 0
3 5 35 0
-3 -5 -35 0
4 6 35 0
-4 -6 -35 0
5 7 35 0
-5 -7 -35 0
1 6 34 0
-1 -6 -34 0
6 8 35 0
-6 -8 -35 0
2 7 34 0
-2 -7 -34 0
7 9 35 0
-7 -9 -35 0
3 8 34 0
-3 -8 -34 0
8 10 35 0
-8 -10 -35 0
4 9 34 0
-4 -9 -34 0
9 11 35 0
-9 -11 -35 0
5 10 34 0
-5 -10 -34 0
10 12 35 0
-10 -12 -35 0
6 11 34 0
-6 -11 -34 0
11 13 35 0
-11 -13 -35 0
7 12 34 0
-7 -12 -34 0
12 14 35 0
-12 -14 -35 0
1 13 33 0
-1 -13 -33 0
8 13 34 0
-8 -13 -34 0
13 15 35 0
-13 -15 -35 0
2 14 33 0
-2 -14 -33 0
9 14 34 0
-9 -14 -34 0
14 16 35 0
-14 -16 -35 0
3 15 33 0
-3 -15 -33 0
10 15 34 0
-10 -15 -34 0
15 17 35 0
-15 -17 -35 0
4 16 33 0
-4 -16 -33 0
11 16 34 0
-11 -16 -34 0
16 18 35 0
-16 -18 -35 0
5 17 33 0
-5 -17 -33 0
12 17 34 0
-12 -17 -34 0
17 19 35 0
-17 -19 -35 0
6 18 33 0
-6 -18 -33 0
13 18 34 0
-13 -18 -34 0
18 20 35 0
-18 -20 -35 0
7 19 33 0
-7 -19 -33 0
14 19 34 0
-14 -19 -34 0
19 21 35 0
-19 -21 -35 0
1 20 32 0
-1 -20 -32 0
8 20 33 0
-8 -20 -33 0
15 20 34 0
-15 -20 -34 0
20 22 35 0
-20 -22 -35 0
2 21 32 0
-2 -21 -32 0
9 21 33 0
-9 -21 -33 0
16 21 34 0
-16 -21 -34 0
21 23 35 0
-21 -23 -35 0
3 22 32 0
-3 -22 -32 0
10 22 33 0
-10 -22 -33 0
17 22 34 0
-17 -22 -34 0
22 24 35 0
-22 -24 -35 0
4 23 32 0
-4 -23 -32 0
11 23 33 0
-11 -23 -33 0
18 23 34 0
-18 -23 -34 0
23 25 35 0
-23 -25 -35 0
5 24 32 0
-5 -24 -32 0
12 24 33 0
-12 -24 -33 0
19 24 34 0
-19 -24 -34 0
24 26 35 0
-24 -26 -35 0
6 25 32 0
-6 -25 -32 0
13 25 33 0
-13 -25 -33 0
20 25 34 0
-20 -25 -34 0
25 27 35 0
-25 -27 -35 0
7 26 32 0
-7 -26 -32 0
14 26 33 0
-14 -26 -33 0
21 26 34 0
-21 -26 -34 0
26 28 35 0
-26 -28 -35 0
1 27 31 0
-1 -27 -31 0
8 27 32 0
-8 -27 -32 0
15 27 33 0
-15 -27 -33 0
22 27 34 0
-22 -27 -34 0
27 29 35 0
-27 -29 -35 0
2 28 31 0
-2 -28 -31 0
9 28 32 0
-9 -28 -32 0
16 28 33 0
-16 -28 -33 0
23 28 34 0
-23 -28 -34 0
28 30 35 0
-28 -30 -35 0
3 29 31 0
-3 -29 -31 0
10 29 32 0
-10 -29 -32 0
17 29 33 0
-17 -29 -33 0
24 29 34 0
-24 -29 -34 0
29 31 35 0
-29 -31 -35 0
4 30 31 0
-4 -30 -31 0
11 30 32 0
-11 -30 -32 0
18 30 33 0
-18 -30 -33 0
25 30 34 0
-25 -30 -34 0
30 32 35 0
-30 -32 -35 0
5 31 0
-5 -31 0
12 31 32 0
-12 -31 -32 0
19 31 33 0
-19 -31 -33 0
26 31 34 0
-26 -31 -34 0
31 33 35 0
-31 -33 -35 0
6 31 32 0
-6 -31 -32 0
13 32 0
-13 -32 0
20 32 33 0
-20 -32 -33 0
27 32 34 0
-27 -32 -34 0
32 34 35 0
-32 -34 -35 0
7 31 33 0
-7 -31 -33 0
14 32 33 0
-14 -32 -33 0
21 33 0
-21 -33 0
28 33 34 0
-28 -33 -34 0
33 35 0
-33 -35 0
1 30 34 0
-1 -30 -34 0
8 31 34 0
-8 -31 -34 0
15 32 34 0
-15 -32 -34 0
22 33 34 0
-22 -33 -34 0
29 34 0
-29 -34 0
2 30 35 0
-2 -30 -35 0
9 31 35 0
-9 -31 -35 0
16 32 35 0
-16 -32 -35 0
23 33 35 0
-23 -33 -35 0
30 34 35 0
-30 -34 -35 0
