certificates/rado_a7_c243_N35.drat
-35 0
33 0
-21 0
19 0
23 0
-7 0
-31 0
-11 0
5 0
9 0
29 0
13 0
-17 0
-34 0
-1 0
-25 0
-32 0
15 0
12 0
22 0
0
